{"lblp_lower": [481.2635721904068, 517.4709466885387, 551.6255952380951, 574.6015935852936, 589.6783813079612, 607.5162612612611, 610.2451224105466, 610.726914949815, 610.7711314655174], "cuttingPlaneBendInfo": [{"tot_cut_value": 0, "TOT_gen_cut": 0, "tot_time_opt": 0, "max_time_opt": 0}, {"tot_cut_value": 0, "TOT_gen_cut": 0, "tot_time_opt": 0, "max_time_opt": 0}, {"tot_cut_value": 0, "TOT_gen_cut": 0, "tot_time_opt": 0, "max_time_opt": 0}, {"tot_cut_value": 0, "TOT_gen_cut": 0, "tot_time_opt": 0, "max_time_opt": 0}, {"tot_cut_value": 0, "TOT_gen_cut": 0, "tot_time_opt": 0, "max_time_opt": 0}, {"tot_cut_value": 0, "TOT_gen_cut": 0, "tot_time_opt": 0, "max_time_opt": 0}, {"tot_cut_value": 0, "TOT_gen_cut": 0, "tot_time_opt": 0, "max_time_opt": 0}, {"tot_cut_value": 0, "TOT_gen_cut": 0, "tot_time_opt": 0, "max_time_opt": 0}, {"tot_cut_value": 0, "TOT_gen_cut": 0, "tot_time_opt": 0, "max_time_opt": 0}], "time_compress": [0, 0, 0, 0, 0, 0, 0, 0, 0], "ub_lp": [759.1750000000001, 659.8999999999999, 648.566666666667, 644.0678571428568, 624.342241460876, 614.1565173195713, 611.4457426611573, 610.8529148503343, 610.7735590193217], "prob_sizes_at_start": [{"timeGraph": 94, "ngGraph": 52}, {"timeGraph": 160, "ngGraph": 132}, {"timeGraph": 390, "ngGraph": 254}, {"timeGraph": 490, "ngGraph": 280}, {"timeGraph": 676, "ngGraph": 266}, {"timeGraph": 810, "ngGraph": 335}, {"timeGraph": 905, "ngGraph": 314}, {"timeGraph": 949, "ngGraph": 416}, {"timeGraph": 904, "ngGraph": 382}], "prob_sizes_after_compress": [{"timeGraph": 44, "ngGraph": 14}, {"timeGraph": 79, "ngGraph": 42}, {"timeGraph": 197, "ngGraph": 30}, {"timeGraph": 301, "ngGraph": 28}, {"timeGraph": 372, "ngGraph": 31}, {"timeGraph": 403, "ngGraph": 49}, {"timeGraph": 436, "ngGraph": 69}, {"timeGraph": 440, "ngGraph": 77}, {"timeGraph": 433, "ngGraph": 84}], "prob_sizes_after_split": [{"timeGraph": 160, "ngGraph": 132}, {"timeGraph": 390, "ngGraph": 254}, {"timeGraph": 490, "ngGraph": 280}, {"timeGraph": 676, "ngGraph": 266}, {"timeGraph": 810, "ngGraph": 335}, {"timeGraph": 905, "ngGraph": 314}, {"timeGraph": 949, "ngGraph": 416}, {"timeGraph": 904, "ngGraph": 382}, {"timeGraph": 495, "ngGraph": 138}], "did_compress": [true, true, true, true, true, true, true, true, true], "lp_time_project": [1.8708240985870361, 0.9653000831604004, 1.0352668762207031, 1.0733582973480225, 1.5274779796600342, 1.4296188354492188, 1.5659267902374268, 1.3458268642425537, 1.6842708587646484], "lp_time_LB": [0.19077491760253906, 0.22480416297912598, 0.43628597259521484, 0.664639949798584, 0.823030948638916, 0.8166611194610596, 0.8968939781188965, 0.8183889389038086, 0.7251889705657959], "ilp_time": [], "history_of_graphs_by_iter": [], "ROOT_LP_PRIOR_ADDING_CUTS": 610.7711314655174, "OUR_ilp_objective": 625.4000000000001, "OUR_MIP_Lower_Bound": 625.3999999999999, "OUR_ilp_time": 20.226459980010986, "OUR_gurobi_MILP_str": "Gurobi Optimizer version 12.0.1 build v12.0.1rc0 (mac64[arm] - Darwin 24.5.0 24F74)\n\nCPU model: Apple M1\nThread count: 8 physical cores, 8 logical processors, using up to 8 threads\n\nNon-default parameters:\nTimeLimit  3000\n\nWLS license 2690165 - registered to Optym\nOptimize a model with 11594 rows, 17773 columns and 74617 nonzeros\nModel fingerprint: 0x851713f4\nVariable types: 102 continuous, 17671 integer (4002 binary)\nCoefficient statistics:\n  Matrix range     [1e+00, 2e+02]\n  Objective range  [4e+00, 8e+01]\n  Bounds range     [1e-01, 2e+02]\n  RHS range        [1e+00, 2e+02]\nUsing branch priorities.\nPresolve removed 8350 rows and 4491 columns\nPresolve time: 0.09s\nPresolved: 3244 rows, 13282 columns, 44650 nonzeros\nVariable types: 98 continuous, 13184 integer (12595 binary)\nFound heuristic solution: objective 2102.2000000\nFound heuristic solution: objective 2046.9000000\n\nRoot relaxation: objective 6.107711e+02, 9315 iterations, 0.69 seconds (1.26 work units)\n\n    Nodes    |    Current Node    |     Objective Bounds      |     Work\n Expl Unexpl |  Obj  Depth IntInf | Incumbent    BestBd   Gap | It/Node Time\n\n     0     0  610.77113    0  400 2046.90000  610.77113  70.2%     -    0s\nH    0     0                     912.2000000  610.77113  33.0%     -    0s\nH    0     0                     912.0000000  610.77113  33.0%     -    0s\nH    0     0                     909.1000000  610.77113  32.8%     -    0s\nH    0     0                     854.0000000  610.77113  28.5%     -    0s\nH    0     0                     852.1000000  610.77113  28.3%     -    0s\nH    0     0                     697.8000000  610.77113  12.5%     -    0s\nH    0     0                     683.3000000  610.77113  10.6%     -    0s\nH    0     0                     680.9000000  610.77113  10.3%     -    1s\nH    0     0                     659.3000000  610.77113  7.36%     -    1s\nH    0     0                     654.7000000  610.88190  6.69%     -    1s\n     0     0  611.05759    0  423  654.70000  611.05759  6.67%     -    1s\nH    0     0                     654.2000000  611.05759  6.59%     -    1s\n     0     0  611.06529    0  428  654.20000  611.06529  6.59%     -    1s\n     0     0  611.06529    0  428  654.20000  611.06529  6.59%     -    1s\n     0     0  612.08298    0  450  654.20000  612.08298  6.44%     -    2s\n     0     0  612.14146    0  455  654.20000  612.14146  6.43%     -    2s\n     0     0  612.68814    0  521  654.20000  612.68814  6.35%     -    2s\nH    0     0                     651.9000000  612.69426  6.01%     -    2s\n     0     0  612.72790    0  523  651.90000  612.72790  6.01%     -    2s\n     0     0  612.73728    0  535  651.90000  612.73728  6.01%     -    2s\n     0     0  612.73731    0  536  651.90000  612.73731  6.01%     -    2s\n     0     0  613.32660    0  560  651.90000  613.32660  5.92%     -    3s\n     0     0  613.55660    0  555  651.90000  613.55660  5.88%     -    3s\n     0     0  613.56551    0  591  651.90000  613.56551  5.88%     -    3s\n     0     0  613.56862    0  596  651.90000  613.56862  5.88%     -    3s\n     0     0  613.56862    0  596  651.90000  613.56862  5.88%     -    3s\nH    0     0                     651.3000000  613.67649  5.78%     -    3s\n     0     0  613.67649    0  585  651.30000  613.67649  5.78%     -    3s\n     0     0  613.69111    0  603  651.30000  613.69111  5.77%     -    3s\n     0     0  613.69124    0  606  651.30000  613.69124  5.77%     -    3s\n     0     0  613.78716    0  590  651.30000  613.78716  5.76%     -    3s\nH    0     0                     644.6000000  613.78866  4.78%     -    3s\n     0     0  613.78866    0  596  644.60000  613.78866  4.78%     -    3s\n     0     0  613.86773    0  580  644.60000  613.86773  4.77%     -    4s\n     0     0  613.87065    0  582  644.60000  613.87065  4.77%     -    4s\n     0     0  613.87187    0  580  644.60000  613.87187  4.77%     -    4s\n     0     0  613.87187    0  580  644.60000  613.87187  4.77%     -    4s\n     0     0  613.90487    0  582  644.60000  613.90487  4.76%     -    4s\n     0     0  613.90654    0  559  644.60000  613.90654  4.76%     -    4s\n     0     0  613.90654    0  559  644.60000  613.90654  4.76%     -    4s\n     0     0  613.95948    0  610  644.60000  613.95948  4.75%     -    4s\n     0     0  613.96095    0  624  644.60000  613.96095  4.75%     -    4s\n     0     0  613.96136    0  613  644.60000  613.96136  4.75%     -    4s\n     0     0  614.00694    0  620  644.60000  614.00694  4.75%     -    4s\n     0     0  614.01801    0  633  644.60000  614.01801  4.74%     -    4s\n     0     0  614.02951    0  609  644.60000  614.02951  4.74%     -    4s\n     0     0  614.03015    0  624  644.60000  614.03015  4.74%     -    4s\n     0     0  614.11358    0  634  644.60000  614.11358  4.73%     -    4s\n     0     0  614.11474    0  636  644.60000  614.11474  4.73%     -    4s\n     0     0  614.13252    0  634  644.60000  614.13252  4.73%     -    4s\n     0     0  614.13816    0  626  644.60000  614.13816  4.73%     -    4s\n     0     0  614.13840    0  631  644.60000  614.13840  4.73%     -    4s\n     0     0  614.28770    0  583  644.60000  614.28770  4.70%     -    5s\n     0     0  614.32832    0  622  644.60000  614.32832  4.70%     -    5s\n     0     0  614.33062    0  616  644.60000  614.33062  4.70%     -    5s\n     0     0  614.33062    0  616  644.60000  614.33062  4.70%     -    5s\n     0     0  614.42013    0  612  644.60000  614.42013  4.68%     -    5s\n     0     0  614.42822    0  637  644.60000  614.42822  4.68%     -    5s\n     0     0  614.43061    0  638  644.60000  614.43061  4.68%     -    5s\n     0     0  614.43061    0  639  644.60000  614.43061  4.68%     -    5s\n     0     0  614.50554    0  687  644.60000  614.50554  4.67%     -    5s\nH    0     0                     629.5000000  614.50732  2.38%     -    5s\n     0     0  614.51116    0  669  629.50000  614.51116  2.38%     -    5s\n     0     0  614.51116    0  669  629.50000  614.51116  2.38%     -    5s\n     0     0  614.53289    0  638  629.50000  614.53289  2.38%     -    5s\n     0     0  614.53289    0  396  629.50000  614.53289  2.38%     -    6s\n     0     0  614.53289    0  527  629.50000  614.53289  2.38%     -    7s\n     0     0  614.53289    0  553  629.50000  614.53289  2.38%     -    7s\n     0     0  614.53289    0  562  629.50000  614.53289  2.38%     -    7s\n     0     0  614.53289    0  573  629.50000  614.53289  2.38%     -    7s\n     0     0  614.53289    0  584  629.50000  614.53289  2.38%     -    7s\n     0     0  614.53289    0  584  629.50000  614.53289  2.38%     -    7s\n     0     0  614.53289    0  591  629.50000  614.53289  2.38%     -    7s\n     0     0  614.53289    0  587  629.50000  614.53289  2.38%     -    7s\n     0     0  614.53289    0  590  629.50000  614.53289  2.38%     -    7s\nH    0     0                     627.9000000  614.53289  2.13%     -    7s\n     0     0  614.53289    0  615  627.90000  614.53289  2.13%     -    7s\n     0     0  614.53289    0  595  627.90000  614.53289  2.13%     -    7s\n     0     0  614.53289    0  595  627.90000  614.53289  2.13%     -    7s\n     0     0  614.53289    0  633  627.90000  614.53289  2.13%     -    8s\n     0     0  614.53289    0  627  627.90000  614.53289  2.13%     -    8s\n     0     0  614.53289    0  620  627.90000  614.53289  2.13%     -    8s\n     0     0  614.53289    0  617  627.90000  614.53289  2.13%     -    8s\n     0     0  614.53289    0  636  627.90000  614.53289  2.13%     -    8s\n     0     0  614.53289    0  640  627.90000  614.53289  2.13%     -    8s\n     0     0  614.53289    0  617  627.90000  614.53289  2.13%     -    8s\n     0     0  614.53439    0  640  627.90000  614.53439  2.13%     -    8s\n     0     0  614.53470    0  642  627.90000  614.53470  2.13%     -    8s\n     0     0  614.74441    0  594  627.90000  614.74441  2.10%     -    8s\n     0     0  614.77218    0  615  627.90000  614.77218  2.09%     -    9s\n     0     0  614.77281    0  607  627.90000  614.77281  2.09%     -    9s\n     0     0  614.81159    0  608  627.90000  614.81159  2.08%     -    9s\n     0     0  614.81180    0  608  627.90000  614.81180  2.08%     -    9s\n     0     0  614.83536    0  612  627.90000  614.83536  2.08%     -    9s\n     0     0  614.83626    0  603  627.90000  614.83626  2.08%     -    9s\n     0     2  614.90756    0  602  627.90000  614.90756  2.07%     -    9s\n     7    16  619.41316    3  517  627.90000  615.00891  2.05%   259   10s\nH   95    94                     625.6000000  615.10752  1.68%   266   11s\nH  210   118                     625.4000000  615.30056  1.61%   222   12s\n   670   237     cutoff    8       625.40000  617.68316  1.23%   176   15s\n  1727    46 infeasible   12       625.40000  622.49196  0.46%   147   20s\n\nCutting planes:\n  Cover: 1\n  Implied bound: 147\n  Clique: 3\n  MIR: 89\n  Inf proof: 3\n  Zero half: 114\n  RLT: 20\n  Relax-and-lift: 45\n  BQP: 11\n  PSD: 20\n\nExplored 1943 nodes (295961 simplex iterations) in 20.23 seconds (31.74 work units)\nThread count was 8 (of 8 available processors)\n\nSolution count 10: 625.4 625.6 627.9 ... 654.2\n\nOptimal solution found (tolerance 1.00e-04)\nBest objective 6.254000000000e+02, best bound 6.254000000000e+02, gap 0.0000%\n", "jy_opt": {"ParetoEps": 1e-05, "turn_off_time_windows": false, "deactivate_time_graph": false, "deactivate_demand_graph": false, "epsilon": 0.0001, "weight_slack_projector": 1e-05, "weight_compress": 0.01, "num_cust_use": 50, "dem_step_sz": 1, "time_step_sz": 1, "use_compression": 1, "max_iterations_loop_compress_project": 50, "do_round_dist_times": 1, "my_shift_bet_time_win": 0.0001, "num_terms_per_bin_init_construct": 100, "allOneBig_init": 0, "min_inc_2_compress": 1e-05, "save_graph_each_iter": 0, "use_Xpress": 0, "use_ineq": false, "xpress_file_loc": "/Users/julian/Documents/FICO_Xpress_Config/xpauth.xpr", "run_baseline": 0, "verbose": 0, "use_NG_graph": 1, "num_NG": 9, "in_demo_mode": 0, "threshold_split": 0.1, "offset_cost_edge_project": 0, "use_classic_compress": 1, "use_classic_compress_last": 1, "num_thresh_split_projector": 1000, "lplb_solver": 4, "compresss_solver": 0, "proj_solver": 4, "use_julians_custom_lp_solver": 0, "do_ilp": 1, "roundingDiscretization_num_digits_keep": 3, "doExrtraRemovalEdgesLB": 0, "use_gurobi": 1, "max_ILP_time": 3000, "use_fancy_ng_graph": 1, "use_dem_graph": 0, "use_time_graph": 1, "num_multiplys_demand": 0, "DEBUG_ALLOW_DUMB_EDGES": 0, "add_all_ng_split_at_end": 0, "do_split_based_init": 0, "think_compress": [0], "use_delta_in_milp": 1, "use_delta_in_lp": 1, "turn_off_non_active_fg_project": 0, "use_new_valid_ineq": 0, "digit_mult_use": 10, "use_branch_on_g": true, "LAB_MP_ON": 0, "LAB_MP_neigh_use_power": 9, "LAB_MP_num_ineq_use": 10, "do_remove_actions_from_incumbant": true, "ub_use_remove": 625.4, "use_packing_in_construction": 1, "maxVarsAdd_in_ITER": 10, "use_ng_size_init": 0, "do_presolve": 0, "use_diving_ineq": 1, "BEND_MIN_LP_OBJECTIVE_CUT": 0.1, "BEND_USE_RAND": 0, "BEND_MAX_SIZE_CHOOSE_K": 230, "BEND_VAL_STOP_ADDING_CUTS": 100000000, "BEND_MY_SIZES_USE": [9], "NUMERICAL_BEND_OFFSET_COST_CUT": 0.0001, "NUMERICAL_BEND_EPSILON_MULT_PARETO_OBJ": 0.001, "NO_PARETO_NUMERICAL_BEND_OFFSET_COST_CUT": 0, "NO_PARETO_BEND_VAL_STOP_ADDING_CUTS": 1, "NO_PARETO_EPSILON_MAX_VAL_CON": 0.01, "BENDERS_NEIGH_SZ_USE": 9, "Actions_of_given_sol": [], "all_vars_binary": 1, "restore_after_each_step": 1, "use_ng": 1, "compress_solver": 1, "DEBUG_NG_turn_off_CLEAN": false, "max_nodes_split": Infinity}, "output_ilp_solution": {"delta_capRem_0": 1.0, "delta_timeRem_0": 26.0, "delta_capRem_1": 5.0, "delta_timeRem_1": 182.0, "delta_capRem_2": 9.3, "delta_timeRem_2": 168.4, "delta_capRem_3": 4.2, "delta_timeRem_3": 74.3, "delta_capRem_4": 12.7, "delta_timeRem_4": 193.1, "delta_capRem_5": 20.0, "delta_timeRem_5": 218.9, "delta_capRem_6": 0.5, "delta_timeRem_6": 32.0, "delta_capRem_7": 8.3, "delta_timeRem_7": 135.0, "delta_capRem_8": 6.9, "delta_timeRem_8": 133.0, "delta_capRem_9": 13.8, "delta_timeRem_9": 184.1, "delta_capRem_10": 12.2, "delta_timeRem_10": 163.0, "delta_capRem_11": 1.9, "delta_timeRem_11": 25.0, "delta_capRem_12": 2.3, "delta_timeRem_12": 71.0, "delta_capRem_13": 14.4, "delta_timeRem_13": 119.1, "delta_capRem_14": 4.3, "delta_timeRem_14": 159.0, "delta_capRem_15": 19.7, "delta_timeRem_15": 190.9, "delta_capRem_16": 10.1, "delta_timeRem_16": 173.1, "delta_capRem_17": 13.9, "delta_timeRem_17": 214.2, "delta_capRem_18": 11.0, "delta_timeRem_18": 146.0, "delta_capRem_19": 4.0, "delta_timeRem_19": 64.3, "delta_capRem_20": 20.0, "delta_timeRem_20": 212.0, "delta_capRem_21": 18.9, "delta_timeRem_21": 192.0, "delta_capRem_22": 10.2, "delta_timeRem_22": 152.0, "delta_capRem_23": 2.2, "delta_timeRem_23": 50.0, "delta_capRem_24": 2.3, "delta_timeRem_24": 54.3, "delta_capRem_25": 1.7, "delta_timeRem_25": 22.0, "delta_capRem_26": 18.1, "delta_timeRem_26": 224.7, "delta_capRem_27": 12.2, "delta_timeRem_27": 223.7, "delta_capRem_28": 3.1, "delta_timeRem_28": 67.0, "delta_capRem_29": 3.1, "delta_timeRem_29": 47.0, "delta_capRem_30": 16.5, "delta_timeRem_30": 202.1, "delta_capRem_31": 6.3, "delta_timeRem_31": 85.0, "delta_capRem_32": 8.0, "delta_timeRem_32": 151.2, "delta_capRem_33": 4.5, "delta_timeRem_33": 90.0, "delta_capRem_34": 5.3, "delta_timeRem_34": 110.1, "delta_capRem_35": 7.3, "delta_timeRem_35": 82.8, "delta_capRem_36": 0.8, "delta_timeRem_36": 32.0, "delta_capRem_37": 16.0, "delta_timeRem_37": 140.2, "delta_capRem_38": 7.3, "delta_timeRem_38": 133.4, "delta_capRem_39": 5.9, "delta_timeRem_39": 201.4, "delta_capRem_40": 10.7, "delta_timeRem_40": 175.1, "delta_capRem_41": 2.8, "delta_timeRem_41": 122.8, "delta_capRem_42": 3.5, "delta_timeRem_42": 141.8, "delta_capRem_43": 17.8, "delta_timeRem_43": 161.0, "delta_capRem_44": 9.9, "delta_timeRem_44": 155.1, "delta_capRem_45": 7.4, "delta_timeRem_45": 104.8, "delta_capRem_46": 6.8, "delta_timeRem_46": 65.6, "delta_capRem_47": 4.1, "delta_timeRem_47": 49.2, "delta_capRem_48": 9.3, "delta_timeRem_48": 124.0, "delta_capRem_49": 10.6, "delta_timeRem_49": 186.6, "act_0_51": 1, "act_1_14": 1, "act_2_32": 1, "act_3_24": 1, "act_4_16": 1, "act_5_15": 1, "act_6_51": 1, "act_7_45": 1, "act_8_34": 1, "act_9_10": 1, "act_10_18": 1, "act_11_51": 1, "act_12_51": 1, "act_13_36": 1, "act_14_42": 1, "act_15_43": 1, "act_16_44": 1, "act_17_4": 1, "act_18_48": 1, "act_19_29": 1, "act_20_21": 1, "act_21_40": 1, "act_22_38": 1, "act_23_11": 1, "act_24_25": 1, "act_25_51": 1, "act_26_30": 1, "act_27_49": 1, "act_28_23": 1, "act_29_0": 1, "act_30_9": 1, "act_31_19": 1, "act_32_8": 1, "act_33_28": 1, "act_34_33": 1, "act_35_46": 1, "act_36_51": 1, "act_37_13": 1, "act_38_3": 1, "act_39_1": 1, "act_40_22": 1, "act_41_12": 1, "act_42_41": 1, "act_43_37": 1, "act_44_7": 1, "act_45_35": 1, "act_46_47": 1, "act_47_6": 1, "act_48_31": 1, "act_49_2": 1, "act_50_5": 1, "act_50_17": 1, "act_50_20": 1, "act_50_26": 1, "act_50_27": 1, "act_50_39": 1}, "Actions_of_given_sol": "none just used source and sink terms", "actions_used": ["act_0_51", "act_1_14", "act_2_32", "act_3_24", "act_4_16", "act_5_15", "act_6_51", "act_7_45", "act_8_34", "act_9_10", "act_10_18", "act_11_51", "act_12_51", "act_13_36", "act_14_42", "act_15_43", "act_16_44", "act_17_4", "act_18_48", "act_19_29", "act_20_21", "act_21_40", "act_22_38", "act_23_11", "act_24_25", "act_25_51", "act_26_30", "act_27_49", "act_28_23", "act_29_0", "act_30_9", "act_31_19", "act_32_8", "act_33_28", "act_34_33", "act_35_46", "act_36_51", "act_37_13", "act_38_3", "act_39_1", "act_40_22", "act_41_12", "act_42_41", "act_43_37", "act_44_7", "act_45_35", "act_46_47", "act_47_6", "act_48_31", "act_49_2", "act_50_5", "act_50_17", "act_50_20", "act_50_26", "act_50_27", "act_50_39"], "init_default_solution_is_empty": false, "objective_of_initial_sol": 2620.8000000000006, "my_paths": "[[50, 5, 15, 43, 37, 13, 36, 51], [50, 17, 4, 16, 44, 7, 45, 35, 46, 47, 6, 51], [50, 20, 21, 40, 22, 38, 3, 24, 25, 51], [50, 26, 30, 9, 10, 18, 48, 31, 19, 29, 0, 51], [50, 27, 49, 2, 32, 8, 34, 33, 28, 23, 11, 51], [50, 39, 1, 14, 42, 41, 12, 51]]"}